r = [
0,27,9,32,26,24,20,30,30,10,27,8,4,30,6,25,6,6,20,6,27,19,11,22,4,9,0
];
p = [
0,12,7,21,9,26,12,2,10,4,22,3,15,15,19,5,29,18,25,7,22,15,11,4,10,1,0
];
e = [
0,8,1,4,13,11,15,5,20,12,14,10,11,20,8,6,11,12,14,7,5,6,20,12,11,4,0
];
d = [
0,355,283,422,278,185,426,252,316,442,436,343,393,224,263,408,157,422,181,225,452,308,352,183,161,283,472
];
d_bar = [
0,366,289,441,286,208,437,254,325,446,456,346,407,238,280,413,183,438,204,231,472,322,362,187,170,284,472
];
w = [
0,0.727272727,0.166666667,0.210526316,1.625,0.47826087,1.363636364,2.5,2.222222222,3,0.7,3.333333333,0.785714286,1.428571429,0.470588235,1.2,0.423076923,0.75,0.608695652,1.166666667,0.25,0.428571429,2,3,1.222222222,4,0
];
